70
1 0 1
2 0 1
3 2 1
4 0 1
4 2 1
4 3 1
5 0 1
5 2 1
5 4 1
6 0 1
6 1 1
6 2 1
6 3 1
6 4 1
6 5 1
7 2 1
7 3 1
7 4 1
7 5 1
7 6 1
8 0 1
8 2 1
8 4 1
9 0 1
9 3 1
9 4 1
9 5 1
9 8 1
10 2 1
10 4 1
10 5 1
10 9 1
11 2 1
11 4 1
11 5 1
11 7 1
11 8 1
11 9 1
12 0 1
12 3 1
12 5 1
12 6 1
12 9 1
12 11 1
13 2 1
13 3 1
13 6 1
13 7 1
13 9 1
14 0 1
14 2 1
14 4 1
14 5 1
14 7 1
14 8 1
14 9 1
14 10 1
14 11 1
14 12 1
14 13 1
15 0 1
15 2 1
15 3 1
15 5 1
15 6 1
15 7 1
15 8 1
15 9 1
15 10 1
15 11 1
16 0 1
16 3 1
16 4 1
16 5 1
16 6 1
16 10 1
16 11 1
16 12 1
16 15 1
17 1 1
17 4 1
17 6 1
17 7 1
17 8 1
17 9 1
17 10 1
17 11 1
17 14 1
17 15 1
17 16 1
18 1 1
18 2 1
18 3 1
18 4 1
18 6 1
18 8 1
18 9 1
18 12 1
18 14 1
18 17 1
19 1 1
19 8 1
19 9 1
19 16 1
19 18 1
20 0 1
20 1 1
20 3 1
20 5 1
20 8 1
20 9 1
20 11 1
20 12 1
20 15 1
20 17 1
20 19 1
21 0 1
21 1 1
21 2 1
21 3 1
21 7 1
21 8 1
21 11 1
21 14 1
21 16 1
21 17 1
21 18 1
21 19 1
21 20 1
22 4 1
22 6 1
22 7 1
22 8 1
22 10 1
22 11 1
22 12 1
22 14 1
22 16 1
22 17 1
22 19 1
22 21 1
23 1 1
23 2 1
23 3 1
23 4 1
23 7 1
23 8 1
23 10 1
23 16 1
23 18 1
24 0 1
24 1 1
24 3 1
24 10 1
24 11 1
24 13 1
24 14 1
24 17 1
24 18 1
24 20 1
24 21 1
24 22 1
24 23 1
25 2 1
25 5 1
25 6 1
25 13 1
25 16 1
25 18 1
25 19 1
25 22 1
26 1 1
26 8 1
26 11 1
26 12 1
26 13 1
26 14 1
26 15 1
26 17 1
26 19 1
26 21 1
26 25 1
27 1 1
27 8 1
27 9 1
27 14 1
27 16 1
27 17 1
27 19 1
27 21 1
27 22 1
27 23 1
27 25 1
27 26 1
28 2 1
28 6 1
28 8 1
28 9 1
28 11 1
28 13 1
28 14 1
28 15 1
28 20 1
28 22 1
29 1 1
29 2 1
29 3 1
29 6 1
29 7 1
29 9 1
29 12 1
29 14 1
29 15 1
29 16 1
29 17 1
29 18 1
29 22 1
29 23 1
29 25 1
29 28 1
30 5 1
30 6 1
30 10 1
30 14 1
30 15 1
30 16 1
31 0 1
31 2 1
31 6 1
31 7 1
31 8 1
31 11 1
31 16 1
31 17 1
31 18 1
31 19 1
31 21 1
31 22 1
31 23 1
31 24 1
31 25 1
32 1 1
32 2 1
32 5 1
32 8 1
32 10 1
32 11 1
32 13 1
32 14 1
32 15 1
32 16 1
32 17 1
32 19 1
32 22 1
32 23 1
32 24 1
32 25 1
32 26 1
32 27 1
32 28 1
32 29 1
32 30 1
32 31 1
33 3 1
33 4 1
33 6 1
33 10 1
33 11 1
33 12 1
33 13 1
33 14 1
33 15 1
33 16 1
33 17 1
33 18 1
33 19 1
33 23 1
33 27 1
33 28 1
33 29 1
33 30 1
34 0 1
34 3 1
34 4 1
34 5 1
34 7 1
34 8 1
34 10 1
34 12 1
34 13 1
34 18 1
34 22 1
34 23 1
34 25 1
34 27 1
35 0 1
35 1 1
35 3 1
35 4 1
35 6 1
35 8 1
35 9 1
35 10 1
35 11 1
35 13 1
35 14 1
35 18 1
35 20 1
35 21 1
35 23 1
35 24 1
35 25 1
35 26 1
35 27 1
35 29 1
35 32 1
35 34 1
36 1 1
36 2 1
36 3 1
36 6 1
36 9 1
36 12 1
36 13 1
36 14 1
36 15 1
36 23 1
36 25 1
36 29 1
36 30 1
36 32 1
36 33 1
36 34 1
36 35 1
37 1 1
37 2 1
37 3 1
37 4 1
37 9 1
37 10 1
37 14 1
37 15 1
37 18 1
37 21 1
37 23 1
37 24 1
37 25 1
37 26 1
37 27 1
37 28 1
37 30 1
37 33 1
37 34 1
38 3 1
38 11 1
38 13 1
38 15 1
38 18 1
38 22 1
38 24 1
38 25 1
38 29 1
38 30 1
38 32 1
38 35 1
38 37 1
39 0 1
39 1 1
39 3 1
39 6 1
39 9 1
39 10 1
39 11 1
39 12 1
39 14 1
39 16 1
39 19 1
39 20 1
39 21 1
39 23 1
39 24 1
39 27 1
39 29 1
39 30 1
39 33 1
39 36 1
39 38 1
40 1 1
40 2 1
40 4 1
40 5 1
40 6 1
40 7 1
40 8 1
40 10 1
40 11 1
40 12 1
40 14 1
40 15 1
40 18 1
40 19 1
40 20 1
40 21 1
40 22 1
40 23 1
40 26 1
40 29 1
40 35 1
40 39 1
41 0 1
41 4 1
41 7 1
41 9 1
41 10 1
41 11 1
41 17 1
41 18 1
41 19 1
41 20 1
41 21 1
41 22 1
41 27 1
41 28 1
41 31 1
41 33 1
41 36 1
41 37 1
41 40 1
42 3 1
42 4 1
42 9 1
42 10 1
42 12 1
42 17 1
42 20 1
42 21 1
42 22 1
42 23 1
42 27 1
42 29 1
42 31 1
42 33 1
42 34 1
42 35 1
42 36 1
42 39 1
42 40 1
43 2 1
43 3 1
43 4 1
43 6 1
43 11 1
43 12 1
43 13 1
43 16 1
43 19 1
43 21 1
43 22 1
43 23 1
43 25 1
43 26 1
43 28 1
43 29 1
43 30 1
43 32 1
43 36 1
43 37 1
43 38 1
43 40 1
44 3 1
44 5 1
44 7 1
44 8 1
44 9 1
44 12 1
44 13 1
44 15 1
44 16 1
44 17 1
44 23 1
44 26 1
44 27 1
44 29 1
44 33 1
44 38 1
44 39 1
44 40 1
44 41 1
44 42 1
44 43 1
45 0 1
45 1 1
45 2 1
45 3 1
45 5 1
45 7 1
45 8 1
45 9 1
45 12 1
45 13 1
45 19 1
45 25 1
45 26 1
45 27 1
45 28 1
45 30 1
45 31 1
45 32 1
45 33 1
45 34 1
45 35 1
45 36 1
45 37 1
45 41 1
45 42 1
45 43 1
46 0 1
46 2 1
46 4 1
46 5 1
46 7 1
46 8 1
46 13 1
46 14 1
46 16 1
46 17 1
46 20 1
46 21 1
46 22 1
46 23 1
46 24 1
46 25 1
46 26 1
46 28 1
46 30 1
46 31 1
46 32 1
46 33 1
46 35 1
46 39 1
46 40 1
46 41 1
46 42 1
46 43 1
46 45 1
47 0 1
47 2 1
47 5 1
47 6 1
47 9 1
47 10 1
47 13 1
47 15 1
47 16 1
47 18 1
47 20 1
47 21 1
47 22 1
47 23 1
47 25 1
47 31 1
47 33 1
47 34 1
47 37 1
47 38 1
47 39 1
47 40 1
47 44 1
48 3 1
48 4 1
48 5 1
48 6 1
48 8 1
48 10 1
48 16 1
48 18 1
48 19 1
48 22 1
48 23 1
48 26 1
48 27 1
48 29 1
48 31 1
48 34 1
48 35 1
48 36 1
48 37 1
48 38 1
48 40 1
48 43 1
48 44 1
48 46 1
49 0 1
49 1 1
49 3 1
49 4 1
49 5 1
49 9 1
49 15 1
49 17 1
49 18 1
49 19 1
49 24 1
49 31 1
49 33 1
49 39 1
49 40 1
49 42 1
50 1 1
50 2 1
50 5 1
50 9 1
50 13 1
50 15 1
50 19 1
50 20 1
50 22 1
50 23 1
50 24 1
50 25 1
50 26 1
50 28 1
50 30 1
50 31 1
50 32 1
50 35 1
50 36 1
50 42 1
50 45 1
50 47 1
50 48 1
50 49 1
51 2 1
51 4 1
51 7 1
51 12 1
51 13 1
51 15 1
51 17 1
51 18 1
51 19 1
51 20 1
51 22 1
51 23 1
51 28 1
51 30 1
51 32 1
51 34 1
51 36 1
51 39 1
51 42 1
51 44 1
51 45 1
51 46 1
51 50 1
52 1 1
52 2 1
52 3 1
52 5 1
52 8 1
52 9 1
52 10 1
52 14 1
52 15 1
52 23 1
52 24 1
52 25 1
52 26 1
52 30 1
52 31 1
52 35 1
52 36 1
52 38 1
52 43 1
52 45 1
52 46 1
52 49 1
52 50 1
53 0 1
53 1 1
53 2 1
53 3 1
53 4 1
53 5 1
53 6 1
53 8 1
53 10 1
53 12 1
53 13 1
53 14 1
53 16 1
53 22 1
53 26 1
53 27 1
53 28 1
53 30 1
53 31 1
53 33 1
53 37 1
53 40 1
53 41 1
53 42 1
53 43 1
53 47 1
53 50 1
53 52 1
54 0 1
54 5 1
54 8 1
54 9 1
54 11 1
54 12 1
54 15 1
54 16 1
54 20 1
54 25 1
54 28 1
54 30 1
54 34 1
54 36 1
54 37 1
54 38 1
54 40 1
54 41 1
54 46 1
54 47 1
54 50 1
54 51 1
55 7 1
55 11 1
55 17 1
55 18 1
55 19 1
55 21 1
55 25 1
55 27 1
55 29 1
55 34 1
55 35 1
55 37 1
55 38 1
55 40 1
55 42 1
55 44 1
55 45 1
55 49 1
55 51 1
55 52 1
55 54 1
56 1 1
56 2 1
56 3 1
56 4 1
56 5 1
56 6 1
56 10 1
56 13 1
56 14 1
56 16 1
56 17 1
56 18 1
56 19 1
56 22 1
56 24 1
56 27 1
56 30 1
56 32 1
56 33 1
56 36 1
56 38 1
56 39 1
56 42 1
56 44 1
56 45 1
56 46 1
56 47 1
56 49 1
56 53 1
56 54 1
57 0 1
57 1 1
57 2 1
57 5 1
57 6 1
57 7 1
57 9 1
57 18 1
57 20 1
57 23 1
57 26 1
57 28 1
57 30 1
57 35 1
57 36 1
57 37 1
57 38 1
57 39 1
57 42 1
57 44 1
57 45 1
57 46 1
57 47 1
57 49 1
57 50 1
57 51 1
57 52 1
57 54 1
57 56 1
58 0 1
58 1 1
58 2 1
58 5 1
58 6 1
58 7 1
58 10 1
58 13 1
58 16 1
58 19 1
58 23 1
58 25 1
58 26 1
58 30 1
58 31 1
58 32 1
58 35 1
58 37 1
58 39 1
58 40 1
58 41 1
58 43 1
58 45 1
58 46 1
58 48 1
58 49 1
58 56 1
58 57 1
59 0 1
59 1 1
59 2 1
59 3 1
59 4 1
59 5 1
59 6 1
59 7 1
59 8 1
59 10 1
59 12 1
59 13 1
59 14 1
59 16 1
59 18 1
59 19 1
59 20 1
59 21 1
59 23 1
59 25 1
59 26 1
59 27 1
59 31 1
59 33 1
59 37 1
59 41 1
59 42 1
59 49 1
59 51 1
59 52 1
59 53 1
59 55 1
60 0 1
60 3 1
60 7 1
60 8 1
60 10 1
60 11 1
60 12 1
60 13 1
60 17 1
60 18 1
60 19 1
60 23 1
60 30 1
60 31 1
60 33 1
60 35 1
60 38 1
60 39 1
60 43 1
60 44 1
60 48 1
60 49 1
60 52 1
60 56 1
60 58 1
61 1 1
61 4 1
61 6 1
61 9 1
61 13 1
61 14 1
61 15 1
61 18 1
61 19 1
61 24 1
61 26 1
61 28 1
61 31 1
61 32 1
61 34 1
61 36 1
61 39 1
61 41 1
61 42 1
61 43 1
61 46 1
61 47 1
61 48 1
61 51 1
61 55 1
61 56 1
61 57 1
61 59 1
62 1 1
62 4 1
62 5 1
62 7 1
62 9 1
62 10 1
62 11 1
62 12 1
62 13 1
62 17 1
62 18 1
62 19 1
62 20 1
62 22 1
62 23 1
62 24 1
62 25 1
62 26 1
62 27 1
62 28 1
62 29 1
62 30 1
62 31 1
62 33 1
62 34 1
62 35 1
62 37 1
62 40 1
62 41 1
62 47 1
62 49 1
62 50 1
62 53 1
62 55 1
62 56 1
62 58 1
62 60 1
62 61 1
63 2 1
63 5 1
63 6 1
63 7 1
63 9 1
63 10 1
63 11 1
63 13 1
63 25 1
63 26 1
63 28 1
63 33 1
63 34 1
63 37 1
63 38 1
63 40 1
63 41 1
63 42 1
63 44 1
63 45 1
63 47 1
63 48 1
63 50 1
63 51 1
63 52 1
63 56 1
63 62 1
64 0 1
64 2 1
64 3 1
64 6 1
64 7 1
64 9 1
64 11 1
64 12 1
64 14 1
64 20 1
64 21 1
64 25 1
64 26 1
64 28 1
64 29 1
64 31 1
64 33 1
64 34 1
64 35 1
64 37 1
64 38 1
64 40 1
64 43 1
64 44 1
64 46 1
64 48 1
64 51 1
64 54 1
64 56 1
64 57 1
64 60 1
65 2 1
65 5 1
65 8 1
65 10 1
65 11 1
65 12 1
65 15 1
65 17 1
65 19 1
65 20 1
65 21 1
65 23 1
65 24 1
65 25 1
65 28 1
65 30 1
65 31 1
65 34 1
65 38 1
65 39 1
65 41 1
65 42 1
65 43 1
65 45 1
65 51 1
65 53 1
65 54 1
65 56 1
65 57 1
65 58 1
65 61 1
65 64 1
66 1 1
66 2 1
66 4 1
66 5 1
66 6 1
66 9 1
66 10 1
66 14 1
66 15 1
66 17 1
66 18 1
66 19 1
66 23 1
66 25 1
66 26 1
66 29 1
66 33 1
66 34 1
66 39 1
66 43 1
66 45 1
66 49 1
66 52 1
66 55 1
66 57 1
66 58 1
66 60 1
66 61 1
66 62 1
66 65 1
67 0 1
67 1 1
67 2 1
67 7 1
67 9 1
67 10 1
67 11 1
67 17 1
67 18 1
67 19 1
67 20 1
67 21 1
67 22 1
67 25 1
67 26 1
67 28 1
67 29 1
67 32 1
67 34 1
67 35 1
67 41 1
67 44 1
67 46 1
67 48 1
67 50 1
67 52 1
67 54 1
67 55 1
67 56 1
67 60 1
67 64 1
67 65 1
68 0 1
68 1 1
68 2 1
68 3 1
68 5 1
68 7 1
68 8 1
68 9 1
68 10 1
68 14 1
68 16 1
68 19 1
68 23 1
68 24 1
68 25 1
68 26 1
68 27 1
68 28 1
68 30 1
68 31 1
68 32 1
68 34 1
68 36 1
68 38 1
68 41 1
68 45 1
68 49 1
68 50 1
68 51 1
68 52 1
68 54 1
68 55 1
68 57 1
68 60 1
68 62 1
68 64 1
68 66 1
68 67 1
69 0 1
69 3 1
69 6 1
69 10 1
69 11 1
69 12 1
69 14 1
69 18 1
69 22 1
69 25 1
69 26 1
69 27 1
69 28 1
69 29 1
69 31 1
69 33 1
69 34 1
69 35 1
69 38 1
69 39 1
69 40 1
69 41 1
69 42 1
69 43 1
69 44 1
69 45 1
69 46 1
69 47 1
69 48 1
69 49 1
69 50 1
69 54 1
69 55 1
69 56 1
69 57 1
69 58 1
69 61 1
69 63 1
69 68 1
